(set-logic QF_S)
(declare-fun var0 () String)
(declare-fun var1 () String)
(declare-fun var2 () String)
(declare-fun var3 () Int)
(declare-fun var4 () Int)
(declare-fun var5 () Int)
(declare-fun var6 () Bool)
(declare-fun var7 () Bool)
(declare-fun var8 () Bool)
(assert (str.prefixof (str.substr var0 var3 var4) (str.replace "DQ:ww}zP*u" var2 var1)))
(assert (str.in.re (str.substr (str.substr var0 var5 var4) (str.len var2) (str.indexof var2 var1 var5)) (re.* re.allchar)))
(assert (str.contains (str.at var0 var4) (str.substr (str.substr var0 var4 var5) (str.indexof var2 var0 var4) (str.indexof "k#S#/`~?qV" var2 var5))))
(assert (str.prefixof (str.at var2 var5) (str.substr (str.replace var1 var2 var2) (str.len var2) (str.len var2))))
(check-sat)